Route #1: 0 14 19 52 59 38 33 18 41 0
Route #2: 0 16 20 3 25 46 40 11 6 34 0
Route #3: 0 47 23 24 58 50 39 0
Route #4: 0 35 55 15 26 17 27 13 0
Route #5: 0 8 57 37 29 7 0
Route #6: 0 43 56 12 51 9 32 0
Route #7: 0 45 5 54 10 22 0
Route #8: 0 42 48 36 1 2 0
Route #9: 0 31 28 44 49 30 53 21 4 0
Cost 1441:
